Route #1: 16 49 24 56 23 63 33 6
Route #2: 68 62 22 64 42 41 43 1 73
Route #3: 75
Route #4: 30 74 21 69 61 28 2
Route #5: 48 47 36 71 60 70 20 37 5
Route #6: 45 29 15 57 13 54 19 8 34
Route #7: 67 46 52 27 4
Route #8: 26 65 66 59 14 7
Route #9: 58 10 38 11 53 35
Route #10: 17 40 32 9 39
Route #11: 51 3 44 50 18 55 25 31 72 12
Cost 836
Time 0.115397
